NAME: cuum280.tsp
TYPE: TSP
COMMENT: User-generated TSP file
DIMENSION: 280
EDGE_WEIGHT_TYPE: EUC_2D
NODE_COORD_SECTION
1 168.0 227.0
2 137.0 256.0
3 2.0 143.0
4 69.0 221.0
5 204.0 92.0
6 216.0 85.0
7 75.0 233.0
8 151.0 145.0
9 162.0 275.0
10 259.0 57.0
11 221.0 12.0
12 195.0 215.0
13 214.0 274.0
14 110.0 206.0
15 235.0 226.0
16 22.0 251.0
17 138.0 205.0
18 214.0 30.0
19 186.0 40.0
20 186.0 215.0
21 36.0 44.0
22 58.0 4.0
23 202.0 278.0
24 270.0 270.0
25 255.0 239.0
26 66.0 237.0
27 78.0 110.0
28 41.0 171.0
29 240.0 164.0
30 151.0 268.0
31 270.0 189.0
32 159.0 170.0
33 243.0 188.0
34 117.0 186.0
35 170.0 211.0
36 170.0 11.0
37 165.0 207.0
38 230.0 191.0
39 50.0 263.0
40 59.0 146.0
41 168.0 148.0
42 61.0 44.0
43 197.0 74.0
44 195.0 128.0
45 184.0 137.0
46 61.0 204.0
47 8.0 217.0
48 229.0 219.0
49 93.0 178.0
50 272.0 68.0
51 24.0 225.0
52 279.0 207.0
53 171.0 280.0
54 26.0 50.0
55 242.0 183.0
56 257.0 243.0
57 129.0 229.0
58 80.0 268.0
59 51.0 220.0
60 236.0 257.0
61 42.0 118.0
62 147.0 33.0
63 155.0 258.0
64 183.0 213.0
65 92.0 158.0
66 248.0 226.0
67 230.0 171.0
68 248.0 177.0
69 34.0 88.0
70 170.0 133.0
71 208.0 203.0
72 188.0 1.0
73 121.0 117.0
74 279.0 126.0
75 131.0 220.0
76 42.0 212.0
77 220.0 188.0
78 38.0 147.0
79 190.0 45.0
80 179.0 55.0
81 214.0 79.0
82 168.0 209.0
83 237.0 29.0
84 120.0 89.0
85 90.0 143.0
86 177.0 254.0
87 145.0 141.0
88 135.0 141.0
89 250.0 188.0
90 175.0 154.0
91 14.0 162.0
92 240.0 115.0
93 199.0 273.0
94 224.0 270.0
95 2.0 197.0
96 107.0 41.0
97 138.0 108.0
98 111.0 144.0
99 20.0 248.0
100 147.0 133.0
101 280.0 132.0
102 116.0 148.0
103 32.0 62.0
104 182.0 277.0
105 134.0 92.0
106 144.0 71.0
107 47.0 149.0
108 77.0 156.0
109 12.0 237.0
110 132.0 119.0
111 244.0 110.0
112 201.0 187.0
113 167.0 95.0
114 187.0 111.0
115 198.0 8.0
116 126.0 89.0
117 243.0 203.0
118 133.0 136.0
119 171.0 37.0
120 48.0 221.0
121 250.0 257.0
122 184.0 197.0
123 149.0 74.0
124 156.0 150.0
125 171.0 58.0
126 271.0 128.0
127 239.0 80.0
128 49.0 117.0
129 99.0 135.0
130 54.0 246.0
131 14.0 254.0
132 222.0 135.0
133 51.0 76.0
134 150.0 230.0
135 67.0 92.0
136 116.0 60.0
137 130.0 39.0
138 71.0 172.0
139 272.0 18.0
140 264.0 69.0
141 197.0 108.0
142 261.0 141.0
143 141.0 265.0
144 61.0 20.0
145 7.0 229.0
146 38.0 170.0
147 96.0 250.0
148 255.0 54.0
149 152.0 194.0
150 163.0 178.0
151 35.0 145.0
152 266.0 180.0
153 167.0 33.0
154 172.0 148.0
155 125.0 20.0
156 183.0 180.0
157 277.0 161.0
158 88.0 146.0
159 264.0 85.0
160 174.0 231.0
161 120.0 101.0
162 44.0 122.0
163 213.0 258.0
164 236.0 99.0
165 7.0 248.0
166 125.0 71.0
167 38.0 224.0
168 30.0 125.0
169 136.0 259.0
170 278.0 73.0
171 172.0 163.0
172 25.0 51.0
173 151.0 120.0
174 188.0 78.0
175 38.0 255.0
176 124.0 191.0
177 171.0 86.0
178 272.0 213.0
179 198.0 120.0
180 221.0 63.0
181 29.0 123.0
182 11.0 119.0
183 54.0 147.0
184 239.0 26.0
185 40.0 131.0
186 141.0 256.0
187 274.0 18.0
188 186.0 249.0
189 200.0 68.0
190 131.0 262.0
191 192.0 27.0
192 66.0 161.0
193 154.0 229.0
194 69.0 66.0
195 228.0 123.0
196 221.0 211.0
197 264.0 136.0
198 142.0 230.0
199 179.0 153.0
200 6.0 47.0
201 124.0 217.0
202 92.0 81.0
203 159.0 200.0
204 176.0 144.0
205 125.0 278.0
206 219.0 166.0
207 209.0 175.0
208 242.0 49.0
209 180.0 264.0
210 113.0 209.0
211 63.0 268.0
212 174.0 241.0
213 179.0 225.0
214 250.0 256.0
215 210.0 17.0
216 163.0 78.0
217 118.0 4.0
218 132.0 165.0
219 141.0 267.0
220 71.0 130.0
221 174.0 230.0
222 139.0 163.0
223 21.0 143.0
224 103.0 27.0
225 27.0 212.0
226 19.0 259.0
227 120.0 134.0
228 17.0 212.0
229 193.0 208.0
230 204.0 83.0
231 223.0 25.0
232 154.0 256.0
233 50.0 79.0
234 141.0 47.0
235 176.0 162.0
236 128.0 235.0
237 112.0 243.0
238 224.0 52.0
239 276.0 210.0
240 45.0 85.0
241 190.0 108.0
242 139.0 266.0
243 78.0 92.0
244 101.0 87.0
245 180.0 148.0
246 135.0 45.0
247 226.0 175.0
248 255.0 35.0
249 183.0 98.0
250 123.0 148.0
251 247.0 133.0
252 19.0 107.0
253 9.0 276.0
254 119.0 81.0
255 271.0 3.0
256 101.0 14.0
257 9.0 73.0
258 213.0 26.0
259 92.0 211.0
260 276.0 164.0
261 221.0 93.0
262 154.0 39.0
263 17.0 46.0
264 150.0 248.0
265 82.0 253.0
266 233.0 201.0
267 236.0 2.0
268 202.0 247.0
269 176.0 256.0
270 149.0 139.0
271 127.0 173.0
272 255.0 271.0
273 164.0 113.0
274 79.0 95.0
275 131.0 246.0
276 125.0 12.0
277 268.0 230.0
278 169.0 147.0
279 113.0 275.0
280 17.0 214.0
EOF





